59
24
70
49
12
28
85
2
84
93
15
66
63
18
3
92
13
5
55
89
50
66
46
38
20
31
62
7
53
19
26
47
80
68
48
44
52
71
80
28
21
73
8
60
83
59
71
48
86
32
31
23
36
47
51
83
3
7
72
65
80
20
59
88
54
59
28
60
89
12
36
39
40
84
2
58
75
89
89
40
98
64
84
2
47
35
1
54
81
19
58
43
61
24
52
11
75
43
80
3
